Optimal - objective value -238.00000000
     13 x_13                   1                     -68
     21 x_21                   1                     -79
     54 x_54                   1                     -18
